CUST NO.,XCOORD.,YCOORD.,updated_SERVICE_TIME,DEMAND,TW_START,TW_END
1,25,85.0,8,20.0,96.0,180.0
2,22,75.0,8,4.6,0.0,144.0
4,20,80.0,8,6.4,96.0,180.0
5,20,85.0,8,2.5,0.0,144.0
8,15,80.0,8,0.8,0.0,144.0
9,10,35.0,8,20.0,0.0,144.0
13,5,35.0,8,0.2,96.0,180.0
15,2,40.0,8,3.2,0.0,144.0
18,44,5.0,8,2.2,0.0,144.0
20,42,15.0,8,10.0,96.0,180.0
21,40,5.0,8,1.7,0.0,144.0
25,35,5.0,8,3.3,156.0,240.0
26,40,50.0,0,0.0,0.0,0.0
capacity,200,,0,0.0,,
